# Solution for model iteration_263
# Objective value = 2.0438827163869746e+01
0 0
1 0.001
3 0.001
5 0.001
6 30.001
7 0.001
8 30.001
9 2.9700768697538081e+01
11 3.0002000000000002e+01
12 40.002
13 3.0002000000000002e+01
14 40.002
15 5.1402757574172377e+01
17 3.9959690564027291e+01
19 4.5546478375466052e+01
21 40.003
22 50.003
23 40.003
25 40.003
26 50.003
27 50.004
28 60.004
29 5.8516311381474466e+01
31 50.004
32 60.004
33 1.0860375757417239e+02
34 1.1860375757417239e+02
35 8.1132696552383180e+01
37 8.5311170338427260e+01
39 6.0004999999999995e+01
40 75.005
41 6.0004999999999995e+01
42 70.005
43 70.006
44 91.006
45 9.7415173642184655e+01
47 7.8739327254795057e+01
48 1.1473932725479504e+02
49 1.2381617364218465e+02
51 1.5131217033842728e+02
53 1.3068889531809936e+02
55 91.007
56 136.007
57 1.1474032725479505e+02
59 1.9668989531809939e+02
61 1.7606662029777141e+02
63 1.6754132725479508e+02
64 2.0354132725479508e+02
65 1.4697378130037919e+02
67 2.2144582716386972e+02
68 2.3144582716386972e+02
69 1.8644582716386972e+02
70 2.3144582716386972e+02
71 2.0354232725479508e+02
72 2.1354232725479508e+02
73 2.3144682716386973e+02
74 2.4144682716386973e+02
75 2.4144782716386973e+02
c(0,75)_ru 2.0438827163869746e+01
lambda[0] 0
lambda[1] 0
lambda[2] 0
lambda[3] 0
lambda[4] 0
lambda[5] 0
lambda[6] 0
lambda[7] 0
lambda[8] 0
lambda[9] 0
lambda[10] 0
lambda[11] 0
lambda[12] 0
lambda[13] 0
lambda[14] 0
lambda[15] 0
lambda[16] 0
lambda[17] 0
lambda[18] 0
lambda[19] 0
lambda[20] 0
lambda[21] 0
lambda[22] 0
lambda[23] 0
lambda[24] 0
lambda[25] 0
lambda[26] 0
lambda[27] 0
lambda[28] 0
lambda[29] 0
lambda[30] 0
lambda[31] 0
lambda[32] 0
lambda[33] 0
lambda[34] 0
lambda[35] 0
lambda[36] 0
lambda[37] 0
lambda[38] 0
lambda[39] 0
lambda[40] 0
lambda[41] 0
lambda[42] 0
lambda[43] 0
lambda[44] 0
lambda[45] 0
lambda[46] 0
lambda[47] 0
lambda[48] 0
lambda[49] 0
lambda[50] 0
lambda[51] 0
lambda[52] 0
lambda[53] 0
lambda[54] 0
lambda[55] 0
lambda[56] 0
lambda[57] 0
lambda[58] 0
lambda[59] 0
lambda[60] 0
lambda[61] 0
lambda[62] 0
lambda[63] 0
lambda[64] 0
lambda[65] 0
lambda[66] 0
lambda[67] 0
lambda[68] 0
lambda[69] 0
lambda[70] 0
lambda[71] 0
lambda[72] 0
lambda[73] 0
lambda[74] 0
lambda[75] 0
lambda[76] 0
lambda[77] 0
lambda[78] 0
lambda[79] 0
lambda[80] 0
lambda[81] 0
lambda[82] 0
lambda[83] 0
lambda[84] 0
lambda[85] 0
lambda[86] 0
lambda[87] 0
lambda[88] 0
lambda[89] 0
lambda[90] 0
lambda[91] 0
lambda[92] 0
lambda[93] 0
lambda[94] 0
lambda[95] 0
lambda[96] 0
lambda[97] 0
lambda[98] 0
lambda[99] 0
lambda[100] 0
lambda[101] 0
lambda[102] 0
lambda[103] 0
lambda[104] 0
lambda[105] 0
lambda[106] 0
lambda[107] 0
lambda[108] 0
lambda[109] 0
lambda[110] 0
lambda[111] 0
lambda[112] 0
lambda[113] 0
lambda[114] 0
lambda[115] 0
lambda[116] 0
lambda[117] 0
lambda[118] 0
lambda[119] 0
lambda[120] 0
lambda[121] 0
lambda[122] 0
lambda[123] 0
lambda[124] 0
lambda[125] 0
lambda[126] 0
lambda[127] 0
lambda[128] 0
lambda[129] 0
lambda[130] 0
lambda[131] 0
lambda[132] 0
lambda[133] 0
lambda[134] 0
lambda[135] 0
lambda[136] 0
lambda[137] 0
lambda[138] 0
lambda[139] 0
lambda[140] 0
lambda[141] 0
lambda[142] 0
lambda[143] 0
lambda[144] 0
lambda[145] 0
lambda[146] 0
lambda[147] 0
lambda[148] 0
lambda[149] 0
lambda[150] 0
lambda[151] 0
lambda[152] 0
lambda[153] 0
lambda[154] 0
lambda[155] 0
lambda[156] 0
lambda[157] 0
lambda[158] 0
lambda[159] 0
lambda[160] 0
lambda[161] 0
lambda[162] 0
lambda[163] 0
lambda[164] 0
lambda[165] 0
lambda[166] 0
lambda[167] 0
lambda[168] 0
lambda[169] 0
lambda[170] 0
lambda[171] 0
lambda[172] 0
lambda[173] 0
lambda[174] 0
lambda[175] 0
lambda[176] 0
lambda[177] 0
lambda[178] 0
lambda[179] 0
lambda[180] 0
lambda[181] 0
lambda[182] 0
lambda[183] 0
lambda[184] 0
lambda[185] 0
lambda[186] 0
lambda[187] 0
lambda[188] 0
lambda[189] 0
lambda[190] 0
lambda[191] 0
lambda[192] 0
lambda[193] 0
lambda[194] 0
lambda[195] 0
lambda[196] 0
lambda[197] 0
lambda[198] 0
lambda[199] 0
lambda[200] 0
lambda[201] 0
lambda[202] 0
lambda[203] 0
lambda[204] 0
lambda[205] 0
lambda[206] 0
lambda[207] 0
lambda[208] 0
lambda[209] 0
lambda[210] 0
lambda[211] 0
lambda[212] 0
lambda[213] 0
lambda[214] 0
lambda[215] 0
lambda[216] 0
lambda[217] 0
lambda[218] 0
lambda[219] 0
lambda[220] 0
lambda[221] 0
lambda[222] 0
lambda[223] 0
lambda[224] 0
lambda[225] 0
lambda[226] 0
lambda[227] 0
lambda[228] 0
lambda[229] 0
lambda[230] 0
lambda[231] 0
lambda[232] 0
lambda[233] 0
lambda[234] 0
lambda[235] 0
lambda[236] 0
lambda[237] 0
lambda[238] 0
lambda[239] 0
lambda[240] 0
lambda[241] 0
lambda[242] 0
lambda[243] 0
lambda[244] 0
lambda[245] 0
lambda[246] 0
lambda[247] 0
lambda[248] 0
lambda[249] 0
lambda[250] 0
lambda[251] 0
lambda[252] 0
lambda[253] 5.5598885139629770e-03
lambda[254] 0
lambda[255] 0
lambda[256] 1.3638796040497966e-02
lambda[257] 9.6948876528471462e-01
lambda[258] 1.1312550160824478e-02
lambda[259] 0
lambda[260] 0
lambda[261] 0
lambda[262] 0
phi[0] 2.2314355131420971e-01
